NAME : traveling-santa-2018-prime-paths.30566.tour
COMMENT : Length = 30566
COMMENT : Found by LKH [Keld Helsgaun] Sun Jun 12 20:00:36 2022
TYPE : TOUR
DIMENSION : 100
TOUR_SECTION
1
26
30
96
9
17
23
78
45
50
21
22
62
7
81
4
94
35
8
42
71
24
63
74
18
31
34
90
41
55
29
11
69
83
91
12
66
3
25
64
5
98
86
93
65
39
19
87
43
72
10
2
16
92
37
48
28
40
53
95
76
36
52
79
38
6
15
27
33
56
14
84
68
67
88
80
97
60
47
57
59
70
58
46
49
85
61
89
54
77
100
82
99
13
20
51
44
32
73
75
-1
EOF
